(set-logic QF_S)
(declare-fun var0 () String)
(declare-fun var1 () String)
(declare-fun var2 () String)
(declare-fun var3 () String)
(declare-fun var4 () Int)
(declare-fun var5 () Int)
(declare-fun var6 () Int)
(assert (str.suffixof var0 var1))
(assert (<= (str.indexof var2 var3 var4) (str.len (str.substr var0 var5 var6))))
(assert (str.contains var3 var1))
(assert (str.contains var2 var2))
(check-sat)